/* Objective function */
min: +maxd;

/* Constraints */
-maxd +2 x11 -2 x12 +3 x21 -3 x22 +25 x31 -25 x32 +10 x41 -10 x42 +13 x51 -13 x52 +4 x61 -4 x62 +8 x71
 -8 x72 +13 x81 -13 x82 +12 x91 -12 x92 +3 x101 -3 x102 <= 0;
-maxd -2 x11 +2 x12 -3 x21 +3 x22 -25 x31 +25 x32 -10 x41 +10 x42 -13 x51 +13 x52 -4 x61 +4 x62 -8 x71
 +8 x72 -13 x81 +13 x82 -12 x91 +12 x92 -3 x101 +3 x102 <= 0;
-maxd +2 x11 -2 x13 +3 x21 -3 x23 +25 x31 -25 x33 +10 x41 -10 x43 +13 x51 -13 x53 +4 x61 -4 x63 +8 x71
 -8 x73 +13 x81 -13 x83 +12 x91 -12 x93 +3 x101 -3 x103 <= 0;
-maxd -2 x11 +2 x13 -3 x21 +3 x23 -25 x31 +25 x33 -10 x41 +10 x43 -13 x51 +13 x53 -4 x61 +4 x63 -8 x71
 +8 x73 -13 x81 +13 x83 -12 x91 +12 x93 -3 x101 +3 x103 <= 0;
-maxd +2 x11 -2 x14 +3 x21 -3 x24 +25 x31 -25 x34 +10 x41 -10 x44 +13 x51 -13 x54 +4 x61 -4 x64 +8 x71
 -8 x74 +13 x81 -13 x84 +12 x91 -12 x94 +3 x101 -3 x104 <= 0;
-maxd -2 x11 +2 x14 -3 x21 +3 x24 -25 x31 +25 x34 -10 x41 +10 x44 -13 x51 +13 x54 -4 x61 +4 x64 -8 x71
 +8 x74 -13 x81 +13 x84 -12 x91 +12 x94 -3 x101 +3 x104 <= 0;
-maxd +2 x12 -2 x13 +3 x22 -3 x23 +25 x32 -25 x33 +10 x42 -10 x43 +13 x52 -13 x53 +4 x62 -4 x63 +8 x72
 -8 x73 +13 x82 -13 x83 +12 x92 -12 x93 +3 x102 -3 x103 <= 0;
-maxd -2 x12 +2 x13 -3 x22 +3 x23 -25 x32 +25 x33 -10 x42 +10 x43 -13 x52 +13 x53 -4 x62 +4 x63 -8 x72
 +8 x73 -13 x82 +13 x83 -12 x92 +12 x93 -3 x102 +3 x103 <= 0;
-maxd +2 x12 -2 x14 +3 x22 -3 x24 +25 x32 -25 x34 +10 x42 -10 x44 +13 x52 -13 x54 +4 x62 -4 x64 +8 x72
 -8 x74 +13 x82 -13 x84 +12 x92 -12 x94 +3 x102 -3 x104 <= 0;
-maxd -2 x12 +2 x14 -3 x22 +3 x24 -25 x32 +25 x34 -10 x42 +10 x44 -13 x52 +13 x54 -4 x62 +4 x64 -8 x72
 +8 x74 -13 x82 +13 x84 -12 x92 +12 x94 -3 x102 +3 x104 <= 0;
-maxd +2 x13 -2 x14 +3 x23 -3 x24 +25 x33 -25 x34 +10 x43 -10 x44 +13 x53 -13 x54 +4 x63 -4 x64 +8 x73
 -8 x74 +13 x83 -13 x84 +12 x93 -12 x94 +3 x103 -3 x104 <= 0;
-maxd -2 x13 +2 x14 -3 x23 +3 x24 -25 x33 +25 x34 -10 x43 +10 x44 -13 x53 +13 x54 -4 x63 +4 x64 -8 x73
 +8 x74 -13 x83 +13 x84 -12 x93 +12 x94 -3 x103 +3 x104 <= 0;
+x11 +x12 +x13 +x14 = 1;
+x21 +x22 +x23 +x24 = 1;
+x31 +x32 +x33 +x34 = 1;
+x41 +x42 +x43 +x44 = 1;
+x51 +x52 +x53 +x54 = 1;
+x61 +x62 +x63 +x64 = 1;
+x71 +x72 +x73 +x74 = 1;
+x81 +x82 +x83 +x84 = 1;
+x91 +x92 +x93 +x94 = 1;
+x101 +x102 +x103 +x104 = 1;
+2 x11 +3 x21 +25 x31 +10 x41 +13 x51 +4 x61 +8 x71 +13 x81 +12 x91 +3 x101 <= 25;
+2 x12 +3 x22 +25 x32 +10 x42 +13 x52 +4 x62 +8 x72 +13 x82 +12 x92 +3 x102 <= 25;
+2 x13 +3 x23 +25 x33 +10 x43 +13 x53 +4 x63 +8 x73 +13 x83 +12 x93 +3 x103 <= 25;
+2 x14 +3 x24 +25 x34 +10 x44 +13 x54 +4 x64 +8 x74 +13 x84 +12 x94 +3 x104 <= 25;
+20 x11 +4 x21 +5 x31 +x41 +5 x51 +10 x61 +5 x71 +x81 +10 x91 +x101 <= 30;
+20 x12 +4 x22 +5 x32 +x42 +5 x52 +10 x62 +5 x72 +x82 +10 x92 +x102 <= 30;
+20 x13 +4 x23 +5 x33 +x43 +5 x53 +10 x63 +5 x73 +x83 +10 x93 +x103 <= 30;
+20 x14 +4 x24 +5 x34 +x44 +5 x54 +10 x64 +5 x74 +x84 +10 x94 +x104 <= 30;

/* Variable bounds */
x11 <= 1;
x12 <= 1;
x13 <= 1;
x14 <= 1;
x21 <= 1;
x22 <= 1;
x23 <= 1;
x24 <= 1;
x31 <= 1;
x32 <= 1;
x33 <= 1;
x34 <= 1;
x41 <= 1;
x42 <= 1;
x43 <= 1;
x44 <= 1;
x51 <= 1;
x52 <= 1;
x53 <= 1;
x54 <= 1;
x61 <= 1;
x62 <= 1;
x63 <= 1;
x64 <= 1;
x71 <= 1;
x72 <= 1;
x73 <= 1;
x74 <= 1;
x81 <= 1;
x82 <= 1;
x83 <= 1;
x84 <= 1;
x91 <= 1;
x92 <= 1;
x93 <= 1;
x94 <= 1;
x101 <= 1;
x102 <= 1;
x103 <= 1;
x104 <= 1;

/* Integer definitions */
int maxd,x11,x12,x13,x14,x21,x22,x23,x24,x31,x32,x33,x34,x41,x42,x43,x44,x51,x52,x53,x54,x61,x62,x63,x64,x71,x72,x73,x74,x81,x82,x83,x84,x91,x92,x93,x94,x101,x102,x103,x104;
